c E(1,3) E(3,1) E(1,2) E(2,1) E(4,1) E(1,4) E(1,0) E(0,1) E(2,3) E(3,2) E(4,3) E(3,4) E(3,0) E(0,3) E(4,2) E(2,4) E(0,2) E(2,0) E(4,0) E(0,4)
c 1 2 3 4 5 6 7 8 9 10 11 12 13 14 15 16 17 18 19 20
p cnf 20 75
8 -8 0
17 -17 0
14 -14 0
20 -20 0
7 -7 0
3 -3 0
1 -1 0
6 -6 0
18 -18 0
4 -4 0
9 -9 0
16 -16 0
13 -13 0
2 -2 0
10 -10 0
12 -12 0
19 -19 0
5 -5 0
15 -15 0
11 -11 0
-8 -7 0
-17 -18 0
-14 -13 0
-20 -19 0
-3 -4 0
-1 -2 0
-6 -5 0
-9 -10 0
-16 -15 0
-12 -11 0
8 7 -8 0
8 7 -7 0
17 18 -17 0
17 18 -18 0
14 13 -14 0
14 13 -13 0
20 19 -20 0
20 19 -19 0
3 4 -3 0
3 4 -4 0
1 2 -1 0
1 2 -2 0
6 5 -6 0
6 5 -5 0
9 10 -9 0
9 10 -10 0
16 15 -16 0
16 15 -15 0
12 11 -12 0
12 11 -11 0
8 17 14 20 0
7 3 1 6 0
18 4 9 16 0
13 2 10 12 0
19 5 15 11 0
8 -8 -7 0
17 -17 -18 0
14 -14 -13 0
20 -20 -19 0
7 -8 -7 0
3 -3 -4 0
1 -1 -2 0
6 -6 -5 0
18 -17 -18 0
4 -3 -4 0
9 -9 -10 0
16 -16 -15 0
13 -14 -13 0
2 -1 -2 0
10 -9 -10 0
12 -12 -11 0
19 -20 -19 0
5 -6 -5 0
15 -16 -15 0
11 -12 -11 0
